@relation nivel_atividade_fisica-weka.filters.unsupervised.attribute.ReplaceMissingValues-weka.filters.unsupervised.attribute.Remove-R9-weka.filters.unsupervised.attribute.Normalize-S1.0-T0.0-weka.filters.unsupervised.attribute.RemoveUseless-M99.0

@attribute idade numeric
@attribute horas_sono numeric
@attribute passos_diarios numeric
@attribute horas_sentado numeric
@attribute freq_exercicio_semana numeric
@attribute imc numeric
@attribute horas_tela numeric
@attribute consumo_agua_litros numeric
@attribute nivel_atividade {Sedentario,Moderadamente_Ativo,Ativo}

@data
0.4,0.876923,0.194833,0.587838,0.285714,0.209003,0.313869,0.361702,Moderadamente_Ativo
0.083333,0.738462,0.235467,0.452703,0.285714,0.144695,0.430657,0.489362,Moderadamente_Ativo
0.816667,0.323077,0.070167,0.614865,0,0.273312,0.467153,0.106383,Sedentario
0.233333,0.753846,0.3108,0.121622,0.714286,0.122186,0.291971,0.425532,Ativo
0.6,0.630769,0.050767,0.594595,0,0.273312,0.656934,0.276596,Sedentario
0.083333,0.753846,0.380267,0.155405,0.714286,0.045016,0.109489,0.489362,Ativo
0.416667,0.353846,0.096567,0.682432,0,0.55627,0.459854,0.212766,Sedentario
0.533333,0,0.466667,0.067568,0.857143,0.086817,0.109489,0.680851,Ativo
0.066667,0.446154,0.192267,0.472973,0.347814,0.414791,0.518248,0.468085,Moderadamente_Ativo
0.5,0.6,0.0679,0.777027,0.142857,0.350482,0.532847,0.297872,Sedentario
0.316667,0.492308,0,0.452703,0,0.511254,0.948905,0.106383,Sedentario
0.483333,0.569231,0.2098,0.439189,0.285714,0.363344,0.211679,0.360914,Moderadamente_Ativo
0.7,0.507692,0.096833,0.702703,0.142857,0.273462,0.59854,0.085106,Sedentario
0.4,0.523077,0.2546,0.371622,0.428571,0.212219,0.437956,0.425532,Moderadamente_Ativo
0.3,0.323077,0.078967,0.614865,0,0.292605,0.693431,0.234043,Sedentario
0.35,0.523077,0.234,0.391892,0.428571,0.311897,0.240876,0.510638,Moderadamente_Ativo
0.25,0.507692,0.5099,0.202703,0.857143,0.086817,0.138686,0.297872,Ativo
0.7,0.430769,0.090767,0.844595,0,0.231511,0.664234,0.340426,Sedentario
0.6,0.384615,0.0661,0.52027,0,0.135048,0.649635,0.191489,Sedentario
0.616667,0.615385,0.069467,0.601351,0,0.302251,0.489051,0.255319,Sedentario
0.35,0.261538,0.0811,0.560811,0,0.392283,0.554745,0.085106,Sedentario
0.15,0.584615,0.257467,0.425676,0.428571,0.308682,0.372263,0.340426,Moderadamente_Ativo
0.433333,0.430769,0.0855,0.601351,0,0.575563,0.467153,0.06383,Sedentario
0.066667,0.538462,0.364767,0.141892,0.714286,0.135048,0.065693,0.489362,Ativo
0.083333,0.723077,0.533,0.162162,0.714286,0.199357,0.189781,0.360914,Ativo
0.133333,0.507692,0.2467,0.378378,0.428571,0.038585,0.357664,0.404255,Moderadamente_Ativo
0.5,0.307692,0.0641,0.614865,0,0.318328,0.518248,0.255319,Sedentario
0.15,0.507692,0.286467,0.398649,0.285714,0.237942,0.277372,0.404255,Moderadamente_Ativo
0.033333,0.676923,0.462167,0.222973,0.714286,0.273462,0.226277,0.595745,Ativo
0.016667,0.723077,0.509667,0.209459,0.571429,0.192926,0.131387,0.489362,Ativo
0.15,0.630769,0.490067,0.310811,0.571429,0.118971,0.20438,0.510638,Ativo
0.566667,0.292308,0.037933,0.689189,0.347814,0.33119,0.49635,0.191489,Sedentario
0.533333,0.246154,0.1054,0.662162,0,0.482315,0.591241,0.191489,Sedentario
0.316667,0.553846,0.313767,0.317568,0.428571,0.282958,0.350365,0.531915,Moderadamente_Ativo
0.25,0.615385,0.352533,0.101351,0.714286,0.241158,0.094891,0.723404,Ativo
0.15,0.523077,0.077133,0.702703,0.347814,0.418006,0.437956,0.191489,Sedentario
0.15,0.553846,0.2158,0.405405,0.285714,0.273462,0.160584,0.234043,Moderadamente_Ativo
0.316667,0.753846,0.2333,0.506757,0.285714,0.273462,0.211679,0.382979,Moderadamente_Ativo
0.25,0.384615,0.077,0.736486,0,0.241158,0.722628,0.148936,Sedentario
0.183333,0.538462,0.095033,0.844595,0,0.427653,0.613139,0.297872,Sedentario
0.083333,0.692308,0.3734,0.094595,0.714286,0.157556,0.211679,0.638298,Ativo
0.566667,0.615385,0.252967,0.452703,0.571429,0.212219,0.518248,0.170213,Moderadamente_Ativo
0.433333,0.461538,0.068967,0.662162,0,0.324759,0.481752,0.297872,Sedentario
0.066667,0.569231,0.430367,0.331081,0.857143,0.205788,0.218978,0.531915,Ativo
0.383333,0.584615,0.003267,0.668919,0,0.038585,0.817518,0.361702,Sedentario
0.216667,0.461538,0.175133,0.351351,0.285714,0.205788,0.459854,0.340426,Moderadamente_Ativo
0.15,0.723077,0.283467,0.344595,0.571429,0.07074,0.364964,0.255319,Moderadamente_Ativo
0.733333,0.353846,0.032433,0.547297,0,0.350482,0.583942,0.319149,Sedentario
0.25,0.8,0.261533,0.277027,0.571429,0.115756,0.153285,0.360914,Ativo
0.65,0.507692,0.104867,0.75,0.142857,0.485531,0.562044,0.191489,Sedentario
0.166667,0.554626,0.2758,0.189189,0.714286,0.212219,0.374881,0.446809,Ativo
0.516667,0.261538,0.1126,0.635135,0,0.40836,0.642336,0.191489,Sedentario
0.5,0.676923,0.083933,0.75,0.142857,0.421222,0.467153,0.148936,Sedentario
0.2,0.4,0.1746,0.412162,0.571429,0.176849,0.374881,0.574468,Moderadamente_Ativo
0.316667,0.261538,0.049067,0.567568,0,0.392283,0.510949,0.042553,Sedentario
0.783333,0.338462,0.044467,0.641892,0.347814,0.308682,0.686131,0.12766,Sedentario
0.366667,0.646154,0.205367,0.432432,0.285714,0.282958,0.416058,0.340426,Moderadamente_Ativo
0.05,0.815385,0.3263,0.222973,0.714286,0.14791,0.291971,0.744681,Ativo
0.35,0.169231,0.1171,0.689189,0,0.472669,0.678832,0.276596,Sedentario
0.616667,0.476923,0.197267,0.412162,0.571429,0.241158,0.262774,0.382979,Moderadamente_Ativo
0.15,0.461538,0.114033,0.47973,0,0.398714,0.635036,0.106383,Sedentario
0.433333,0.415385,0.231662,0.547297,0.285714,0.305466,0.29927,0.468085,Moderadamente_Ativo
0.316667,0.753846,0.414967,0.222973,0.714286,0.14791,0.036496,0.574468,Ativo
0.066667,0.569231,0.284533,0.141892,0.857143,0.180064,0.233577,0.446809,Ativo
0.633333,0.446154,0.095433,0.662162,0.347814,0.55627,0.554745,0.106383,Sedentario
0.283333,0.523077,0.231662,0.148649,0.571429,0.157556,0.094891,0.553191,Ativo
0.133333,0.707692,0.422767,0.371622,0.571429,0.266881,0.284672,0.638298,Ativo
0.1,0.6,0.1895,0.506757,0.285714,0.270096,0.270073,0.404255,Moderadamente_Ativo
0.716667,0.230769,0.042667,0.601351,0,0.524116,0.374881,0.276596,Sedentario
0.233333,0.292308,0.0663,0.621622,0,0.401929,0.510949,0.234043,Sedentario
0.683333,0.323077,0.155067,0.601351,0,0.356913,0.693431,0.12766,Sedentario
0.133333,0.538462,0.193433,0.324324,0.428571,0.160772,0.357664,0.382979,Moderadamente_Ativo
0.633333,0.4,0.081833,0.452703,0,0.446945,0.70073,0.021277,Sedentario
0.916667,0.292308,0.1205,0.662162,0,0.334405,0.547445,0.212766,Sedentario
0,0.569231,0.1609,0.364865,0.285714,0.334405,0.226277,0.297872,Moderadamente_Ativo
0.016667,0.953846,0.466567,0.182432,0.714286,0.234727,0.248175,0.659574,Ativo
0.35,0.507692,0.574767,0.141892,0.857143,0.144695,0.145985,0.531915,Ativo
0.25,0.707692,0.240433,0.452703,0.428571,0.151125,0.226277,0.382979,Moderadamente_Ativo
0.3,0.553846,0.3426,0.114865,0.714286,0.093248,0.175182,0.510638,Ativo
0,0.661538,0.3488,0.202703,0.857143,0.292605,0.175182,0.382979,Ativo
0.066667,1,0.465333,0.405405,0.714286,0.122186,0.226277,0.659574,Ativo
0.05,0.584615,0.266667,0.141892,0.571429,0.093248,0.145985,0.489362,Ativo
0.2,0.353846,0.2053,0.432432,0.428571,0.118971,0.291971,0.659574,Moderadamente_Ativo
0.116667,0.876923,0.25,0.371622,0.428571,0.231511,0.364964,0.404255,Moderadamente_Ativo
0,0.738462,0.308833,0.209459,0.571429,0.234727,0.218978,0.489362,Ativo
0.183333,0.446154,0.276767,0.358108,0.347814,0.263666,0.357664,0.468085,Moderadamente_Ativo
0,0.584615,0.2729,0.432432,0.428571,0.135048,0.211679,0.382979,Moderadamente_Ativo
0.033333,0.553846,0.281833,0.547297,0.285714,0.128617,0.29927,0.468085,Moderadamente_Ativo
0.333333,0.492308,0.193433,0.358108,0.428571,0.189711,0.474453,0.319149,Moderadamente_Ativo
0.616667,0.046154,0.004,1,0,1,1,0,Sedentario
0.366667,0.615385,0.463567,0.195946,0.571429,0.144695,0.284672,0.404255,Ativo
0.483333,0.554626,0.242367,0.574324,0.428571,0.340836,0.233577,0.319149,Moderadamente_Ativo
0.233333,0.492308,0.097433,0.614865,0.142857,0.356913,0.532847,0.360914,Sedentario
0.433333,0.523077,0.225867,0.5,0.347814,0.205788,0.350365,0.340426,Moderadamente_Ativo
0.25,0.554626,0.231662,0.655405,0,0.424437,0.868613,0.148936,Sedentario
0.5,0.292308,0.107867,0.5,0,0.450161,0.766423,0.170213,Sedentario
0.133333,0.492308,0.212167,0.540541,0.285714,0.234727,0.374881,0.255319,Moderadamente_Ativo
0.516667,0.492308,0.229933,0.418919,0.428571,0.099678,0.20438,0.404255,Moderadamente_Ativo
0.316667,0.507692,0.291567,0.574324,0.571429,0.324759,0.262774,0.468085,Moderadamente_Ativo
0.716667,0.476923,0.070967,0.533784,0.347814,0.302251,0.423358,0.148936,Sedentario
0.583333,0.292308,0.084333,0.567568,0,0.209003,0.474453,0.06383,Sedentario
0.533333,0.2,0.054767,0.743243,0,0.491961,0.583942,0.170213,Sedentario
0.65,0.276923,0.1083,0.628378,0,0.498392,0.459854,0.212766,Sedentario
0.35,0.676923,0.261867,0.47973,0.428571,0.273462,0.291971,0.361702,Moderadamente_Ativo
0.3,0.907692,0.453667,0.195946,0.714286,0.093248,0.072993,0.617021,Ativo
0.55,0.415385,0.153333,0.635135,0,0.475884,0.671533,0.042553,Sedentario
0.483333,0.615385,0.2583,0.398649,0.285714,0.273312,0.328467,0.404255,Moderadamente_Ativo
0.416667,0.6,0.1883,0.405405,0.285714,0.334405,0.423358,0.446809,Moderadamente_Ativo
0,0.630769,0.2646,0.472973,0.285714,0.376206,0.20438,0.360914,Moderadamente_Ativo
0.75,0.061538,0.072,0.608108,0,0.292605,0.452555,0.319149,Sedentario
0.05,0.553846,0.286633,0.412162,0.571429,0.167203,0.350365,0.340426,Moderadamente_Ativo
0.4,0.707692,0.427167,0.040541,0.714286,0.273462,0.374881,0.319149,Ativo
0.15,0.292308,0.078933,0.662162,0,0.446945,0.437956,0.297872,Sedentario
0.716667,0.554626,0.231662,0.824324,0,0.549839,0.671533,0.085106,Sedentario
0.35,0.276923,0.084567,0.547297,0,0.167203,0.70073,0.212766,Sedentario
0.2,0.138462,0.059333,0.790541,0,0.356913,0.430657,0.12766,Sedentario
0.35,0.554626,0.043567,0.831081,0,0.559486,0.59854,0.191489,Sedentario
0.45,0.4,0.086033,0.668919,0.142857,0.440514,0.547445,0.042553,Sedentario
0,0.569231,0.231662,0.040541,0.571429,0.122186,0.072993,0.319149,Ativo
0.716667,0.123077,0.071533,0.533784,0,0.273462,0.532847,0.191489,Sedentario
0.633333,0.476923,0.100867,0.702703,0.142857,0.327974,0.737226,0.191489,Sedentario
0.216667,0.492308,0.1924,0.391892,0.428571,0.106109,0.350365,0.446809,Moderadamente_Ativo
0.1,0.692308,0.4109,0.27027,0.571429,0.263666,0.109489,0.425532,Ativo
0.166667,0.554626,0.486233,0.121622,0.714286,0.135048,0.10219,0.553191,Ativo
0.516667,0.615385,0.231662,0.256757,0.428571,0.170418,0.518248,0.468085,Moderadamente_Ativo
0.55,0.492308,0.201967,0.351351,0.285714,0.215434,0.270073,0.276596,Moderadamente_Ativo
0.366667,0.692308,0.1995,0.472973,0.428571,0.414791,0.374881,0.319149,Moderadamente_Ativo
0.55,0.384615,0.099333,0.432432,0,0.501608,0.408759,0.276596,Sedentario
0.183333,0.753846,0.273433,0.425676,0.428571,0.11254,0.262774,0.468085,Moderadamente_Ativo
0.25,0.630769,0.232267,0.527027,0.285714,0.209003,0.211679,0.276596,Moderadamente_Ativo
0.066667,0.646154,0.1716,0.304054,0.285714,0.305466,0.131387,0.404255,Moderadamente_Ativo
0.066667,0.661538,0.377133,0.182432,0.714286,0.180064,0.182482,0.531915,Ativo
0.3,0.507692,0.232933,0.5,0.285714,0.273462,0.554745,0.234043,Moderadamente_Ativo
0.3,0.646154,0.286967,0.418919,0.428571,0.157556,0.554745,0.510638,Moderadamente_Ativo
0.333333,0.523077,0.255733,0.506757,0.428571,0.135048,0.437956,0.404255,Moderadamente_Ativo
0.333333,0.554626,0.505467,0.114865,0.347814,0.192926,0.182482,0.595745,Ativo
0.45,0.569231,0.2529,0.425676,0.285714,0.086817,0.182482,0.148936,Moderadamente_Ativo
0.45,0.584615,0.194567,0.459459,0.285714,0.421222,0.489051,0.446809,Moderadamente_Ativo
0.083333,0.630769,0.503367,0.391892,0.571429,0.090032,0.233577,0.468085,Ativo
0.2,0.769231,0.4,0.594595,0.714286,0.601286,0.510949,0.042553,Ativo
0.65,0.430769,0,0.52027,0,0.623794,0.437956,0.042553,Sedentario
0.5,0.676923,0.208133,0.472973,0.428571,0.247588,0.20438,0.340426,Moderadamente_Ativo
0.083333,0.738462,0.231662,0.317568,0.857143,0.192926,0.160584,0.680851,Ativo
0.333333,0.4,0.218667,0.527027,0.571429,0.263666,0.540146,0.297872,Moderadamente_Ativo
0.233333,0.615385,0.231662,0.168919,0.857143,0.080386,0,0.489362,Ativo
0.283333,0.554626,0.1016,0.824324,0,0.475884,0.510949,0.12766,Sedentario
0.133333,0.446154,0.062333,0.506757,0,0.254019,0.781022,0.255319,Sedentario
0.116667,0.892308,0.4061,0.216216,0.857143,0.151125,0.226277,0.595745,Ativo
0.333333,0.523077,0.334033,0.209459,1,0.067524,0.065693,0.595745,Ativo
0.25,0.753846,0.3002,0.27027,0.571429,0.163987,0.138686,0.723404,Ativo
0.116667,0.815385,0.425967,0.25,0.571429,0.141479,0.277372,0.595745,Ativo
0,0.4,0.0746,0.709459,0.142857,0.549839,0.554745,0.085106,Sedentario
0.733333,0.630769,0.043267,0.702703,0,0.543408,0.474453,0.234043,Sedentario
0.083333,0.630769,0.453233,0.054054,0.571429,0.286174,0.116788,0.574468,Ativo
0.116667,0.676923,0.262167,0.452703,0.285714,0.212219,0.306569,0.446809,Moderadamente_Ativo
0.566667,0.554626,0.245233,0.331081,0.285714,0.337621,0.350365,0.510638,Moderadamente_Ativo
0.15,0.492308,0.305633,0.141892,0.714286,0.115756,0.124088,0.638298,Ativo
0,0.661538,0.2961,0.216216,0.714286,0.173633,0.182482,0.659574,Ativo
0.333333,0.723077,0.0965,0.587838,0,0.530547,0.656934,0.042553,Sedentario
0.683333,0.630769,0.096833,0.533784,0,0.466238,0.437956,0.234043,Sedentario
0.416667,0.8,0.461167,0.067568,0.714286,0.157556,0.189781,0.510638,Ativo
0.416667,0.554626,0.082233,0.574324,0,0.482315,0.474453,0.170213,Sedentario
0,0.6,0.205933,0.52027,0.285714,0.244373,0.284672,0.531915,Moderadamente_Ativo
0.183333,0.938462,0.408167,0.189189,0.571429,0.125402,0.211679,0.808511,Ativo
0.65,0.307692,0.069567,0.466216,0,0.07074,0.40146,0.234043,Sedentario
0.083333,0.784615,0.231662,0.128378,0.714286,0.189711,0.19708,0.489362,Ativo
0.25,0.646154,0.090467,0.635135,0,0.585209,0.80292,0.319149,Sedentario
0,0.723077,0.366333,0.074324,0.857143,0.241158,0.160584,0.659574,Ativo
0.283333,0.569231,0.309133,0.27027,0.571429,0.109325,0.284672,0.553191,Ativo
0.083333,0.307692,0.0126,0.668919,0,0.292605,0.649635,0.06383,Sedentario
0.333333,0.554626,0.303167,0.222973,0.714286,0.273462,0.218978,0.638298,Ativo
0.933333,0.384615,0.105833,0.540541,0,0.257235,0.510949,0.340426,Sedentario
0.183333,0.138462,0.0532,0.77027,0,0.26045,0.686131,0.12766,Sedentario
0.15,0.753846,0.503367,0.283784,0.714286,0.07717,0.138686,0.531915,Ativo
0,0.569231,0.2576,0.385135,0.428571,0.337621,0.364964,0.425532,Moderadamente_Ativo
0.3,0.784615,0.541067,0.155405,0.857143,0.286174,0.374881,0.468085,Ativo
0.433333,0.784615,0.3941,0.202703,0.714286,0.135048,0.014599,0.595745,Ativo
0.116667,0.6,0.2614,0.452703,0.571429,0.273462,0.138686,0.404255,Moderadamente_Ativo
0.6,0.554626,0.088633,0.587838,0,0.376206,0.722628,0.191489,Sedentario
0.783333,0.6,0.021667,0.783784,0.142857,0.565916,0.562044,0.106383,Sedentario
0,0.661538,0.366167,0.175676,0.857143,0.176849,0.109489,0.702128,Ativo
0.133333,0.554626,0.388767,0.141892,0.857143,0.061093,0.036496,0.574468,Ativo
0.333333,0.646154,0.182133,0.378378,0.285714,0.321543,0.240876,0.361702,Moderadamente_Ativo
0.133333,0.6,0.053033,0.790541,0,0.572347,0.583942,0.021277,Sedentario
0.433333,0.769231,0.277667,0.364865,0.428571,0.257235,0.270073,0.468085,Moderadamente_Ativo
0.35,0.707692,0.583267,0.202703,0.571429,0,0.211679,0.702128,Ativo
0.15,0.784615,0.283,0.290541,0.714286,0.131833,0.160584,0.360914,Ativo
0.3,0.323077,0.046533,0.621622,0,0.090032,0.569343,0.170213,Sedentario
0.183333,0.676923,0.197333,0.358108,0.428571,0.163987,0.182482,0.382979,Moderadamente_Ativo
0.35,0.523077,0.084733,0.5,0.142857,0.639871,0.510949,0.12766,Sedentario
0.233333,0.507692,0.335333,0.168919,0.571429,0.080386,0.19708,0.574468,Ativo
0.35,0.554626,0.276333,0.283784,0.428571,0.180064,0.474453,0.148936,Moderadamente_Ativo
0.133333,0.523077,0.222333,0.351351,0.428571,0.163987,0.343066,0.510638,Moderadamente_Ativo
0.266667,1,0.426867,0.054054,0.714286,0.21865,0.10219,0.489362,Ativo
0.483333,0.353846,0.294767,0.358108,0.428571,0.469453,0.547445,0.276596,Moderadamente_Ativo
0.533333,0.584615,0.118833,0.736486,0,0.22508,0.510949,0.170213,Sedentario
0.366667,0.692308,0.2183,0.263514,0.428571,0.163987,0.218978,0.446809,Moderadamente_Ativo
0.566667,0.615385,0.197533,0.297297,0.428571,0.254019,0.40146,0.234043,Moderadamente_Ativo
0.433333,0.554626,0.232867,0.432432,0.285714,0.289389,0.374881,0.446809,Moderadamente_Ativo
0.35,0.153846,0.076867,0.628378,0,0.472669,0.80292,0.191489,Sedentario
0.066667,0.938462,0.533067,0.202703,0.714286,0.221865,0.306569,0.617021,Ativo
0.8,0.553846,0.071833,0.608108,0,0.678457,0.627737,0.212766,Sedentario
0,0.415385,0.2134,0.459459,0.285714,0.321543,0.277372,0.340426,Moderadamente_Ativo
0.65,0.276923,0.081667,0.594595,0,0.44373,0.708029,0.12766,Sedentario
0.133333,0.553846,0.327067,0.128378,0.571429,0.160772,0.131387,0.382979,Ativo
0.316667,0.8,0.445967,0.162162,0.714286,0.151125,0.145985,0.489362,Ativo
0.133333,0.769231,0.407433,0.182432,0.571429,0.266881,0.043796,0.489362,Ativo
0.233333,0.384615,0.170133,0.378378,0.285714,0.22508,0.416058,0.319149,Moderadamente_Ativo
0.25,0.692308,0.093333,0.641892,0.142857,0.440514,0.620438,0.148936,Sedentario
0.366667,0.430769,0.2693,0.189189,0.428571,0.141479,0.189781,0.361702,Moderadamente_Ativo
0.066667,0.784615,0.395867,0.162162,0.714286,0.07074,0.240876,0.702128,Ativo
0.216667,0.169231,0.085233,0.743243,0.142857,0.337621,0.708029,0.170213,Sedentario
0.416667,0.492308,0.0485,0.547297,0,0.231511,0.810219,0.148936,Sedentario
0.55,0.738462,0.179833,0.452703,0.571429,0.189711,0.29927,0.319149,Moderadamente_Ativo
0.083333,0.553846,0.162633,0.452703,0.428571,0.305466,0.153285,0.510638,Moderadamente_Ativo
0.733333,0.107692,0.003167,0.959459,0,0.909968,0.970803,0.042553,Sedentario
0.533333,0.553846,0.065033,0.655405,0,0.40836,0.591241,0.319149,Sedentario
0.3,0.6,0.1293,0.277027,0.285714,0.122186,0.364964,0.404255,Moderadamente_Ativo
0.466667,0.661538,0.2425,0.52027,0.428571,0.279743,0.226277,0.680851,Moderadamente_Ativo
0.083333,0.4,0.192933,0.344595,0.285714,0.221865,0.423358,0.255319,Moderadamente_Ativo
0.25,0.415385,0.193167,0.52027,0.285714,0.382637,0.437956,0.340426,Moderadamente_Ativo
0.283333,0.661538,0.2517,0.317568,0.428571,0.356913,0.510949,0.382979,Moderadamente_Ativo
0.383333,0.430769,0.075867,0.756757,0,0.376206,0.474453,0.276596,Sedentario
0.283333,0.476923,0.4097,0.141892,0.714286,0.192926,0.116788,0.468085,Ativo
0.083333,0.553846,0.246767,0.277027,0.571429,0.202572,0.343066,0.510638,Moderadamente_Ativo
0.383333,0.415385,0.053,0.5,0.142857,0.151125,0.854015,0.234043,Sedentario
0,0.753846,0.2172,0.466216,0.571429,0.463023,0.262774,0.404255,Moderadamente_Ativo
0.8,0.569231,0.069867,0.608108,0,0.594855,0.686131,0.148936,Sedentario
0,0.476923,0.277067,0.412162,0.428571,0.244373,0.40146,0.319149,Moderadamente_Ativo
0.333333,0.507692,0.021033,0.648649,0,0.263666,0.642336,0.170213,Sedentario
0.05,0.738462,0.3727,0,0.857143,0.086817,0.211679,0.425532,Ativo
0.416667,0.538462,0.1679,0.574324,0,0.321543,0.839416,0.106383,Sedentario
0.25,0.661538,0.245933,0.439189,0.285714,0.189711,0.29927,0.553191,Moderadamente_Ativo
0.216667,0.507692,0.4783,0.317568,0.571429,0.141479,0.182482,0.659574,Ativo
0,0.815385,0.257267,0.364865,0.285714,0.131833,0.474453,0.319149,Moderadamente_Ativo
0.466667,0.676923,0.2539,0.364865,0.285714,0.279743,0.270073,0.319149,Moderadamente_Ativo
0.266667,0.584615,0.217867,0.472973,0.285714,0.151125,0.321168,0.255319,Moderadamente_Ativo
0.333333,0.323077,0.0651,0.756757,0.142857,0.321543,0.489051,0.212766,Sedentario
0.233333,0.630769,0.213333,0.398649,0.428571,0.038585,0.19708,0.382979,Moderadamente_Ativo
0.083333,0.630769,0.2213,0.445946,0.285714,0.234727,0.540146,0.360914,Moderadamente_Ativo
0.133333,0.646154,0.3493,0.22973,0.714286,0.131833,0.131387,0.702128,Ativo
0.133333,0.661538,0.297867,0.412162,0.428571,0.186495,0.374881,0.404255,Moderadamente_Ativo
0.466667,0.153846,0.1145,0.682432,0,0.366559,0.620438,0.212766,Sedentario
0.766667,0.261538,0.0254,0.608108,0,0.511254,0.49635,0.021277,Sedentario
0.2,0.338462,0.2155,0.405405,0.285714,0.064309,0.489051,0.319149,Moderadamente_Ativo
0.183333,0.692308,0.330967,0.236486,0.714286,0.173633,0.160584,0.531915,Ativo
0.166667,0.707692,0.2898,0.344595,0.285714,0.21865,0.386861,0.361702,Moderadamente_Ativo
0.183333,0.538462,0.435067,0.155405,0.347814,0.186495,0.248175,0.574468,Ativo
1,0.430769,0.0803,0.641892,0,0.273462,0.518248,0.12766,Sedentario
0.533333,0.307692,0.080333,0.574324,0,0.5209,0.642336,0.361702,Sedentario
0.333333,0.584615,0.578133,0.175676,0.714286,0.257235,0.124088,0.638298,Ativo
0.016667,0.738462,0.231662,0.175676,0.857143,0.173633,0.189781,0.510638,Ativo
0.866667,0.523077,0.066667,0.695946,0.142857,0.524116,0.374881,0.106383,Sedentario
0.1,0.446154,0.492,0.175676,0.571429,0.305466,0.255474,0.510638,Ativo
0.433333,0.338462,0.113733,0.662162,0.142857,0.199357,0.613139,0.255319,Sedentario
0.2,0.569231,0.321967,0.216216,0.857143,0.086817,0.226277,0.489362,Ativo
0.566667,0.738462,0.061933,0.527027,0,0.601286,0.656934,0.170213,Sedentario
0.316667,0.523077,0.238833,0.587838,0.285714,0.289389,0.321168,0.425532,Moderadamente_Ativo
0.2,0.707692,0.256433,0.412162,0.428571,0.138264,0.452555,0.360914,Moderadamente_Ativo
0.733333,0.276923,0.0886,0.601351,0.347814,0.572347,0.605839,0.170213,Sedentario
0.033333,0.646154,0.392667,0.060811,0.857143,0.151125,0.145985,0.723404,Ativo
0.333333,0.384615,0.272133,0.412162,0.285714,0.038585,0.321168,0.360914,Moderadamente_Ativo
0.566667,0.507692,0.2586,0.304054,0.571429,0.308682,0.374881,0.360914,Moderadamente_Ativo
0.133333,0.846154,0.4642,0.27027,0.571429,0.231511,0.270073,0.553191,Ativo
0.183333,0.553846,0.172833,0.364865,0.428571,0.379421,0.291971,0.276596,Moderadamente_Ativo
0,0.784615,0.2936,0.135135,0.571429,0.125402,0.094891,0.617021,Ativo
0.366667,0.584615,0.0369,0.817568,0,0.350482,0.374881,0.255319,Sedentario
0.333333,0.876923,0.365333,0.094595,0.714286,0.115756,0.007299,0.489362,Ativo
0.4,0.4,0.149333,0.47973,0,0.498392,0.613139,0.148936,Sedentario
0.35,0.692308,0.290633,0.304054,0.285714,0.254019,0.525547,0.404255,Moderadamente_Ativo
0.733333,0.276923,0,0.601351,0,0.090032,0.722628,0.191489,Sedentario
0.05,0.554626,0.436467,0.202703,0.571429,0.135048,0.109489,0.659574,Ativo
0.15,0.723077,0.5217,0.256757,0.571429,0.144695,0.145985,0.489362,Ativo
0.416667,0.138462,0.079833,0.682432,0.142857,0.202572,0.569343,0.170213,Sedentario
0.2,0.6,0.189967,0.405405,0.285714,0.389068,0.321168,0.170213,Moderadamente_Ativo
0.6,0.369231,0.0876,0.52027,0,0.37299,0.525547,0.255319,Sedentario
0.316667,0.369231,0.078233,0.702703,0,0.21865,0.627737,0.212766,Sedentario
0.35,0.738462,0.0462,0.432432,0,0.33119,0.467153,0.234043,Sedentario
0.233333,0.661538,0.234967,0.405405,0.285714,0.167203,0.335766,0.468085,Moderadamente_Ativo
0.183333,0.830769,0.337367,0.243243,0.714286,0.273462,0.109489,0.382979,Ativo
0.25,0.723077,0.486967,0.135135,0.714286,0.231511,0.160584,0.595745,Ativo
0.216667,0.6,0.208433,0.398649,0.428571,0.318328,0.374881,0.595745,Moderadamente_Ativo
0.233333,0.476923,0.231662,0.513514,0.428571,0.154341,0.372263,0.425532,Moderadamente_Ativo
0.25,0.307692,0.2818,0.364865,0.428571,0.340836,0.262774,0.489362,Moderadamente_Ativo
0.25,0.538462,0.2359,0.432432,0.285714,0.21865,0.262774,0.297872,Moderadamente_Ativo
0.116667,0.6,0.4197,0.310811,0.571429,0.26045,0.321168,0.446809,Ativo
0.083333,0.707692,0.380233,0.168919,0.571429,0.138264,0.167883,0.510638,Ativo
0.366667,0.230769,0.05,0.135135,0,0.273462,0.072993,0.787234,Sedentario
0.066667,0.723077,0.3083,0.439189,0.285714,0.289389,0.291971,0.446809,Moderadamente_Ativo
0.516667,0.4,0.067267,0.682432,0,0.546624,0.59854,0.191489,Sedentario
0.35,0.538462,0.250967,0.304054,0.428571,0.244373,0.262774,0.361702,Moderadamente_Ativo
0.15,0.784615,0.546267,0.168919,0.571429,0.131833,0.051095,0.638298,Ativo
0,0.676923,0.4648,0.310811,0.571429,0.241158,0.291971,0.510638,Ativo
0.4,0.8,0.511033,0.135135,0.571429,0.18328,0.051095,0.595745,Ativo
0.366667,0.846154,0.448533,0.236486,0.857143,0.199357,0.211679,0.382979,Ativo
0.65,0.230769,0.0623,0.682432,0,0.44373,0.576642,0.148936,Sedentario
0.083333,0.646154,0.4046,0.128378,0.571429,0.173633,0.153285,0.510638,Ativo
0.283333,0.646154,0.234033,0.405405,0.285714,0.180064,0.343066,0.361702,Moderadamente_Ativo
0.516667,0.538462,0.013733,0.777027,0,0.643087,0.605839,0.042553,Sedentario
0.233333,0.553846,0.149333,0.486486,0.285714,0.192926,0.313869,0.425532,Moderadamente_Ativo
0.133333,0.430769,0.104733,0.662162,0,0.459807,0.605839,0.234043,Sedentario
0.083333,0.676923,0.174433,0.614865,0.428571,0.266881,0.248175,0.340426,Moderadamente_Ativo
0.933333,0.338462,0.0724,0.689189,0.142857,0.411576,0.70073,0.297872,Sedentario
0.366667,0.876923,0.165933,0.385135,0.285714,0.141479,0.226277,0.404255,Moderadamente_Ativo
0.383333,0.723077,0.354467,0.236486,0.571429,0.006431,0.189781,0.297872,Ativo
0.45,0.492308,0.205233,0.452703,0.428571,0.292605,0.189781,0.531915,Moderadamente_Ativo
0.316667,0.476923,0.213133,0.466216,0.428571,0.350482,0.525547,0.468085,Moderadamente_Ativo
0.016667,0.476923,0.4378,0.243243,0.571429,0.141479,0.167883,0.723404,Ativo
0.383333,0.538462,0.349033,0.222973,0.714286,0.189711,0.116788,0.680851,Ativo
0.1,0.461538,0.269133,0.27027,0.428571,0.154341,0.255474,0.361702,Moderadamente_Ativo
0.633333,0.307692,0.0883,0.641892,0.142857,0.347267,0.532847,0.212766,Sedentario
0.483333,0.615385,0.0625,0.662162,0.347814,0.446945,0.642336,0.212766,Sedentario
0,0.384615,0.278967,0.554054,0.285714,0.363344,0.226277,0.297872,Moderadamente_Ativo
0.333333,0.507692,0.062167,0.472973,0,0.405145,0.613139,0.085106,Sedentario
0.05,0.584615,0.536333,0.175676,0.714286,0.086817,0.058394,0.553191,Ativo
0.166667,0.861538,0.488967,0.263514,0.714286,0.221865,0.109489,0.617021,Ativo
0.45,0.6,0.087967,0.682432,0,0.459807,0.656934,0.276596,Sedentario
0.316667,0.676923,0.397467,0.182432,0.714286,0.202572,0.175182,0.425532,Ativo
0.35,0.538462,0.091667,0.547297,0,0.501608,0.386861,0.212766,Sedentario
0.35,0.553846,0.246467,0.344595,0.285714,0.334405,0.437956,0.319149,Moderadamente_Ativo
0.35,0.476923,0.047767,0.614865,0,0.527331,0.79562,0.212766,Sedentario
0.15,0.815385,0.5226,0.297297,0.571429,0.096463,0,0.425532,Ativo
0.566667,0,0.091233,0.72973,0,0.273462,0.80292,0.212766,Sedentario
0.166667,0.092308,0.102767,0.743243,0,0.327974,0.394161,0.212766,Sedentario
0.133333,0.369231,0.306667,0.554054,0.285714,0.061093,0.284672,0.360914,Moderadamente_Ativo
0.116667,0.6,0.2699,0.459459,0.428571,0.11254,0.49635,0.319149,Moderadamente_Ativo
0.216667,0.630769,0.429067,0.033784,0.571429,0.234727,0.10219,0.617021,Ativo
0.266667,0.630769,0.190467,0.493243,0.428571,0.241158,0.452555,0.360914,Moderadamente_Ativo
0.833333,0.6,0.231662,0.364865,0.428571,0.038585,0.379562,0.531915,Moderadamente_Ativo
0.15,0.723077,0.214467,0.27027,0.428571,0.273462,0.445255,0.425532,Moderadamente_Ativo
0.466667,0.492308,0.081767,0.52027,0,0.33119,0.40146,0.12766,Sedentario
0.15,0.738462,0.500867,0.25,0.714286,0.131833,0.19708,0.468085,Ativo
0.333333,0.476923,0.230933,0.5,0.285714,0.125402,0.350365,0.425532,Moderadamente_Ativo
0.583333,0.461538,0.2338,0.331081,0.285714,0.231511,0.328467,0.446809,Moderadamente_Ativo
0.383333,0.615385,0.093233,0.695946,0,0.366559,0.445255,0.148936,Sedentario
0.4,0.615385,0.135633,0.398649,0.428571,0.18328,0.255474,0.531915,Moderadamente_Ativo
0.183333,0.723077,0.464167,0.189189,0.714286,0.118971,0.145985,0.617021,Ativo
0.05,0.830769,0.479533,0.108108,0.857143,0.170418,0.175182,0.531915,Ativo
0.3,0.692308,0.412167,0.22973,0.714286,0.270096,0.036496,0.574468,Ativo
0.05,0.707692,0.238133,0.317568,0.285714,0.270096,0.284672,0.574468,Moderadamente_Ativo
0.066667,0.676923,0.231662,0.310811,0.571429,0.215434,0.043796,0.510638,Ativo
0.483333,0.338462,0.067567,0.628378,0,0.29582,0.59854,0.170213,Sedentario
0.433333,0.584615,0.209767,0.304054,0.428571,0.266881,0.20438,0.468085,Moderadamente_Ativo
0.2,0.446154,0.241067,0.385135,0.428571,0.196141,0.189781,0.360914,Moderadamente_Ativo
0.533333,0.554626,0.0501,0.722973,0,0.385852,0.80292,0.085106,Sedentario
0.2,0.784615,0.412433,0.256757,0.571429,0.18328,0.233577,0.553191,Ativo
0.016667,0.523077,0.389367,0.202703,0.714286,0.131833,0.10219,0.617021,Ativo
0.266667,0.830769,0.4125,0.324324,0.857143,0.196141,0.262774,0.510638,Ativo
0.35,0.615385,0.2006,0.614865,0.428571,0.273462,0.343066,0.382979,Moderadamente_Ativo
0.183333,0.415385,0.333333,0.277027,0.571429,0.205788,0.321168,0.319149,Moderadamente_Ativo
0.55,0.338462,0.1286,0.601351,0.347814,0.340836,0.759124,0.340426,Sedentario
0.6,0.246154,0.073967,0.486486,0,0.485531,0.525547,0.297872,Sedentario
0.15,0.923077,1,0,1,0,0.007299,1,Ativo
0.6,0.6,0.099433,0.682432,0,0.173633,0.635036,0.191489,Sedentario
0.066667,0.692308,0.279267,0.162162,0.571429,0.144695,0.248175,0.553191,Ativo
0.266667,0.230769,0.0128,0.567568,0,0.347267,0.532847,0.360914,Sedentario
0.366667,0.523077,0.236267,0.418919,0.285714,0.151125,0.364964,0.361702,Moderadamente_Ativo
0.65,0.861538,0.086133,0.797297,0,0.411576,0.408759,0.234043,Sedentario
0.066667,0.753846,0.4308,0.22973,0.571429,0.234727,0.131387,0.617021,Ativo
0.566667,0.538462,0.2373,0.472973,0.571429,0.186495,0.262774,0.276596,Moderadamente_Ativo
0.7,0.461538,0.073933,0.621622,0,0.392283,0.671533,0.170213,Sedentario
0.166667,0.507692,0.220767,0.486486,0.571429,0.215434,0.321168,0.255319,Moderadamente_Ativo
0.033333,0.692308,0.1152,0.405405,0.285714,0.199357,0.233577,0.148936,Moderadamente_Ativo
0.283333,0.554626,0.427533,0.054054,0.714286,0.196141,0.19708,0.574468,Ativo
0.133333,0.815385,0.450833,0.364865,0.571429,0.028939,0.065693,0.553191,Ativo
0.483333,0.661538,0.217567,0.52027,0.428571,0.311897,0.284672,0.319149,Moderadamente_Ativo
0.366667,0.815385,0.2203,0.331081,0.285714,0.228296,0.284672,0.595745,Moderadamente_Ativo
0.116667,0.554626,0.490067,0.168919,0.714286,0.096463,0.452555,0.404255,Ativo
0.35,0.769231,0.266867,0.452703,0.428571,0.215434,0.20438,0.404255,Moderadamente_Ativo
0.616667,0.138462,0.078433,0.527027,0,0.405145,0.481752,0.12766,Sedentario
0.45,0.523077,0.2614,0.412162,0.285714,0.241158,0.29927,0.404255,Moderadamente_Ativo
0.583333,0.323077,0.0794,0.844595,0.142857,0.456592,0.591241,0.360914,Sedentario
0.516667,0.292308,0.1054,0.783784,0,0.305466,0.591241,0.276596,Sedentario
0.7,0.661538,0.1935,0.472973,0.571429,0.244373,0.145985,0.361702,Moderadamente_Ativo
0.35,0.784615,0.231662,0.081081,0.571429,0.118971,0.175182,0.553191,Ativo
0.516667,0.6,0.105767,0.756757,0,0.244373,0.773723,0.06383,Sedentario
0.283333,0.707692,0.209067,0.324324,0.285714,0.202572,0.321168,0.446809,Moderadamente_Ativo
0.383333,0.538462,0.4067,0.290541,0.714286,0.128617,0.058394,0.680851,Ativo
0.4,0.707692,0.2454,0.5,0.285714,0.215434,0.145985,0.360914,Moderadamente_Ativo
0.816667,0.369231,0.110633,0.527027,0,0.209003,0.591241,0.234043,Sedentario
0.266667,0.6,0.057833,0.891892,0,0.424437,0.481752,0.234043,Sedentario
0.166667,0.553846,0.179933,0.418919,0.285714,0.073955,0.459854,0.276596,Moderadamente_Ativo
0.483333,0.6,0.231662,0.783784,0,0.340836,0.467153,0.021277,Sedentario
0.35,0.307692,0.0794,0.75,0,0.347267,0.671533,0.021277,Sedentario
0.5,0.876923,0.2158,0.47973,0.347814,0.157556,0.510949,0.276596,Moderadamente_Ativo
0.283333,0.553846,0.094733,0.425676,0,0.389068,0.518248,0.148936,Sedentario
0.433333,0.569231,0.1385,0.493243,0.142857,0.585209,0.656934,0.212766,Sedentario
0.083333,0.969231,0.933333,0.013514,1,0.012862,0.021898,0.957447,Ativo
0.633333,0.461538,0.2105,0.425676,0.428571,0.205788,0.452555,0.170213,Moderadamente_Ativo
0.116667,0.8,0.326833,0.283784,0.714286,0.180064,0.131387,0.404255,Ativo
0.483333,0.784615,0.496633,0.283784,0.571429,0.189711,0.065693,0.425532,Ativo
0.233333,0.723077,0.1944,0.364865,0.428571,0.26045,0.175182,0.404255,Moderadamente_Ativo
0.35,0.476923,0.091467,0.5,0,0.543408,0.671533,0.085106,Sedentario
0.783333,0.723077,0.299667,0.304054,0.285714,0.299035,0.386861,0.425532,Moderadamente_Ativo
0.083333,0.8,0.379333,0.202703,0.857143,0.064309,0.374881,0.595745,Ativo
0.533333,0.554626,0.218133,0.304054,0.347814,0.209003,0.416058,0.382979,Moderadamente_Ativo
0.166667,0.723077,0.231662,0.195946,0.714286,0.07717,0.116788,0.531915,Ativo
0.433333,0.446154,0.1003,0.689189,0,0.446945,0.861314,0.170213,Sedentario
0.666667,0.584615,0.089733,0.466216,0.142857,0.273462,0.649635,0.042553,Sedentario
0.25,0.261538,0.063533,0.621622,0,0.495177,0.481752,0.042553,Sedentario
0.15,0.523077,0.231662,0.189189,0.857143,0.202572,0.20438,0.702128,Ativo
0,0.815385,0.3867,0.222973,0.571429,0.138264,0.131387,0.489362,Ativo
0.45,0.476923,0.129433,0.790541,0,0.318328,0.569343,0.021277,Sedentario
0.533333,0.184615,0.231662,0.777027,0,0.247588,0.613139,0.297872,Sedentario
0,0.738462,0.203333,0.398649,0.428571,0.385852,0.343066,0.340426,Moderadamente_Ativo
0.283333,0.276923,0.0687,0.587838,0,0.569132,0.374881,0.170213,Sedentario
0.616667,0.507692,0.0741,0.675676,0,0.472669,0.576642,0.085106,Sedentario
0.1,0.692308,0.480333,0.162162,0.347814,0.090032,0.240876,0.595745,Ativo
0.133333,0.584615,0.4156,0.162162,0.714286,0.199357,0.226277,0.489362,Ativo
0.7,0.769231,0.221767,0.574324,0.285714,0.302251,0.328467,0.425532,Moderadamente_Ativo
0.1,0.446154,0.219333,0.337838,0.285714,0.118971,0.277372,0.255319,Moderadamente_Ativo
0.3,0.492308,0.1239,0.77027,0.142857,0.33119,0.467153,0.148936,Sedentario
0.583333,0.692308,0.170033,0.283784,0.285714,0.199357,0.306569,0.446809,Moderadamente_Ativo
0.316667,0.676923,0.434533,0.060811,0.571429,0.21865,0.072993,0.574468,Ativo
0.216667,0.615385,0.231667,0.216216,0.571429,0.189711,0.240876,0.404255,Moderadamente_Ativo
0.066667,0.861538,0.4374,0.189189,0.714286,0.212219,0.49635,0.510638,Ativo
0.183333,0.507692,0.104733,0.790541,0,0.356913,0.613139,0.340426,Sedentario
0.25,0.846154,0.429167,0.222973,0.857143,0.244373,0.167883,0.510638,Ativo
0.55,0.569231,0.094167,0.736486,0,0.427653,0.642336,0.212766,Sedentario
0.016667,0.430769,0.278933,0.527027,0.285714,0.109325,0.445255,0.382979,Moderadamente_Ativo
0.016667,0.153846,0.002667,0.97973,0,0.948553,0.948905,0.021277,Sedentario
0.083333,0.6,0.384667,0.195946,0.714286,0.057878,0.131387,0.574468,Ativo
0.166667,0.230769,0.0694,0.567568,0.347814,0.115756,0.649635,0.191489,Sedentario
0,0.661538,0.280967,0.351351,0.428571,0.405145,0.29927,0.340426,Moderadamente_Ativo
0.066667,0.554626,0.400433,0.189189,0.714286,0.131833,0.182482,0.553191,Ativo
0.466667,0.707692,0.246733,0.527027,0.285714,0.135048,0.40146,0.382979,Moderadamente_Ativo
0.283333,0.753846,0.264233,0.351351,0.428571,0.299035,0.072993,0.468085,Moderadamente_Ativo
0.116667,0.646154,0.276733,0.432432,0.347814,0.286174,0.321168,0.425532,Moderadamente_Ativo
0.2,0.661538,0.358167,0.195946,0.714286,0.128617,0.094891,0.553191,Ativo
0.166667,0.615385,0.4756,0.162162,0.571429,0.135048,0.094891,0.382979,Ativo
0.266667,0.753846,0.3783,0.155405,0.571429,0.051447,0.374881,0.553191,Ativo
0.266667,0.492308,0.0639,0.635135,0,0.344051,0.540146,0.106383,Sedentario
0.283333,0.938462,0.4572,0,0.714286,0.163987,0.233577,0.360914,Ativo
0.416667,0.492308,0.275533,0.466216,0.428571,0.131833,0.374881,0.382979,Moderadamente_Ativo
0.466667,0.492308,0.0767,0.722973,0.142857,0.21865,0.686131,0.212766,Sedentario
0.183333,0.676923,0.2723,0.391892,0.285714,0.173633,0.29927,0.489362,Moderadamente_Ativo
0.6,0.584615,0.116667,0.277027,0.285714,0.33119,0.29927,0.489362,Moderadamente_Ativo
0.15,0.553846,0.4501,0.263514,0.857143,0.096463,0.153285,0.446809,Ativo
0.333333,0.492308,0.074133,0.641892,0,0.273312,0.737226,0.12766,Sedentario
0.216667,0.523077,0.231662,0.304054,0.285714,0.266881,0.416058,0.340426,Moderadamente_Ativo
0.866667,0.476923,0.0821,0.648649,0,0.559486,0.525547,0.06383,Sedentario
0.166667,0.6,0.225367,0.358108,0.428571,0.215434,0.167883,0.340426,Moderadamente_Ativo
0.283333,0.646154,0.176833,0.418919,0.428571,0.189711,0.437956,0.340426,Moderadamente_Ativo
0.15,0.676923,0.311167,0.189189,0.857143,0.151125,0.218978,0.404255,Ativo
0.133333,0.507692,0.239533,0.364865,0.428571,0.215434,0.335766,0.425532,Moderadamente_Ativo
0.416667,0.246154,0.0696,0.675676,0,0.273312,0.686131,0.276596,Sedentario
0.133333,0.353846,0.084267,0.695946,0.142857,0.430868,0.374881,0.360914,Sedentario
0.3,0.646154,0.390233,0.243243,0.571429,0.189711,0.189781,0.574468,Ativo
0.016667,0.846154,0.5721,0.189189,0.571429,0.163987,0.240876,0.489362,Ativo
0.066667,0.676923,0.146433,0.47973,0.285714,0.273312,0.19708,0.404255,Moderadamente_Ativo
0.35,0.169231,0.060233,0.635135,0,0.553055,0.364964,0.212766,Sedentario
0,0.630769,0.4185,0.243243,0.571429,0.160772,0.051095,0.360914,Ativo
0.533333,0.615385,0.234933,0.574324,0.285714,0.22508,0.408759,0.361702,Moderadamente_Ativo
0.533333,0.476923,0.095333,0.831081,0,0.289389,0.423358,0.106383,Sedentario
0.233333,0.476923,0.083867,0.689189,0,0.729904,0.510949,0.12766,Sedentario
0.733333,0.554626,0.073367,0.682432,0,0.22508,0.715328,0.148936,Sedentario
0.55,0.092308,0.102533,0.594595,0.142857,0.379421,0.374881,0.06383,Sedentario
0.966667,0.6,0.035667,0.648649,0.142857,0.482315,0.620438,0.255319,Sedentario
0.466667,0.723077,0.0679,0.662162,0,0.559486,0.875912,0.12766,Sedentario
0.216667,0.553846,0.499933,0.067568,0.714286,0.141479,0.284672,0.531915,Ativo
0.65,0.492308,0.057433,0.635135,0,0.241158,0.759124,0.255319,Sedentario
0.566667,0.538462,0.1592,0.418919,0.285714,0.450161,0.379562,0.360914,Moderadamente_Ativo
0.466667,0.461538,0.116167,0.547297,0,0.369775,0.576642,0.234043,Sedentario
0.983333,0.369231,0,0.432432,0,0.266881,0.562044,0.255319,Sedentario
0.283333,0.246154,0.102633,0.581081,0,0.453376,0.759124,0.234043,Sedentario
0.466667,0.323077,0.063367,0.648649,0,0.601286,0.277372,0.255319,Sedentario
0.35,0.553846,0.209533,0.466216,0.428571,0.263666,0.313869,0.574468,Moderadamente_Ativo
0.216667,0.676923,0.2751,0.202703,0.714286,0.282958,0.262774,0.787234,Ativo
0.083333,0.8,0.5321,0.27027,0.571429,0.186495,0.072993,0.617021,Ativo
0,0.784615,0.446833,0.141892,0.714286,0.064309,0.240876,0.510638,Ativo
0.116667,0.753846,0.424067,0.25,0.571429,0.041801,0.248175,0.446809,Ativo
0.433333,0.630769,0.225367,0.628378,0.285714,0.205788,0.467153,0.468085,Moderadamente_Ativo
0.1,0.846154,0.4982,0.189189,0.714286,0.202572,0.153285,0.638298,Ativo
0.35,0.630769,0.311067,0.101351,0.714286,0.11254,0.145985,0.510638,Ativo
0.95,0.2,0.092233,0.574324,0,0.459807,0.729927,0.297872,Sedentario
0.583333,0.384615,0.160733,0.783784,0,0.366559,0.846715,0.234043,Sedentario
0.166667,0.6,0.264167,0.5,0.285714,0.305466,0.153285,0.297872,Moderadamente_Ativo
0.316667,0.6,0.231662,0.202703,0.714286,0.131833,0.189781,0.574468,Ativo
0.216667,0.769231,0.469967,0.114865,0.571429,0.106109,0.175182,0.531915,Ativo
0.316667,0.184615,0.043667,0.695946,0,0.636656,0.343066,0.319149,Sedentario
0.166667,0.707692,0.424667,0.189189,0.571429,0.228296,0.374881,0.595745,Ativo
0.533333,0.230769,0.137067,0.655405,0,0.495177,0.642336,0.191489,Sedentario
0.166667,0.753846,0.231662,0.418919,0.428571,0.273462,0.313869,0.234043,Moderadamente_Ativo
0.316667,0.630769,0.4005,0.243243,0.571429,0.118971,0.080292,0.680851,Ativo
0.433333,0.415385,0.084833,0.445946,0.347814,0.305466,0.467153,0.148936,Sedentario
0.033333,0.769231,0.228533,0.358108,0.428571,0.21865,0.40146,0.382979,Moderadamente_Ativo
0.216667,0.584615,0.228067,0.378378,0.285714,0.212219,0.182482,0.446809,Moderadamente_Ativo
0.35,0.430769,0.139733,0.635135,0.142857,0.302251,0.576642,0.319149,Sedentario
0.2,0.630769,0.358967,0.243243,0.714286,0.241158,0.138686,0.510638,Ativo
0.45,0.246154,0.0703,0.506757,0,0.501608,0.547445,0.106383,Sedentario
0.45,0.461538,0.094167,0.662162,0,0.424437,0.708029,0.085106,Sedentario
0.316667,0.584615,0.216333,0.405405,0.285714,0.186495,0.350365,0.425532,Moderadamente_Ativo
0.05,0.723077,0.494733,0.141892,0.347814,0.093248,0.240876,0.595745,Ativo
0.466667,0.553846,0.254033,0.52027,0.428571,0.305466,0.321168,0.340426,Moderadamente_Ativo
0.4,0.753846,0.193567,0.439189,0.428571,0.170418,0.306569,0.191489,Moderadamente_Ativo
0.35,0.753846,0.525767,0.155405,0.714286,0.215434,0.124088,0.468085,Ativo
0.4,0.523077,0.248767,0.547297,0.428571,0.318328,0.374881,0.340426,Moderadamente_Ativo
0.383333,0.476923,0.1983,0.344595,0.347814,0.286174,0.357664,0.360914,Moderadamente_Ativo
0.533333,0.292308,0.156,0.675676,0,0.456592,0.708029,0.212766,Sedentario
0.133333,0.507692,0.195333,0.418919,0.285714,0.109325,0.29927,0.255319,Moderadamente_Ativo
0.233333,0.615385,0.453833,0.310811,0.714286,0.061093,0.116788,0.361702,Ativo
0.366667,0.353846,0.0849,0.628378,0,0.5209,0.620438,0.191489,Sedentario
0.183333,0.784615,0.520333,0.202703,0.714286,0.173633,0.189781,0.659574,Ativo
0.416667,0.553846,0.1902,0.398649,0.428571,0.305466,0.437956,0.340426,Moderadamente_Ativo
0.333333,0.323077,0.0803,0.675676,0,0.466238,0.374881,0.191489,Sedentario
0.65,0.430769,0.186167,0.371622,0.285714,0.131833,0.576642,0.404255,Moderadamente_Ativo
0.5,0.230769,0.0568,0.641892,0,0.678457,0.445255,0.170213,Sedentario
0.6,0.569231,0.226433,0.398649,0.428571,0.26045,0.357664,0.276596,Moderadamente_Ativo
0.033333,0.630769,0.191767,0.317568,0.285714,0.244373,0.189781,0.531915,Moderadamente_Ativo
0.95,0.230769,0.040833,0.641892,0,0.398714,0.40146,0.212766,Sedentario
0.55,0.338462,0.231662,0.858108,0,0.273462,0.532847,0.106383,Sedentario
0.9,0.430769,0.070267,0.722973,0,0.270096,0.518248,0.255319,Sedentario
0.466667,0.661538,0.0818,0.560811,0.142857,0.472669,0.459854,0.148936,Sedentario
0.266667,0.646154,0.428167,0.189189,0.857143,0.14791,0.065693,0.361702,Ativo
0.55,0.446154,0.059567,0.621622,0,0.33119,0.445255,0.360914,Sedentario
0.216667,0.707692,0.471167,0.108108,0.714286,0.263666,0.189781,0.489362,Ativo
0.033333,0.707692,0.360133,0.114865,0.347814,0.064309,0.109489,0.595745,Ativo
0.683333,0.230769,0.1642,0.648649,0,0.366559,0.613139,0.255319,Sedentario
0.083333,0.615385,0.459233,0.22973,0.714286,0.273462,0.021898,0.489362,Ativo
0.333333,0.553846,0.118033,0.391892,0.428571,0.308682,0.364964,0.276596,Moderadamente_Ativo
0.3,0.523077,0.332067,0.358108,0.428571,0.376206,0.335766,0.468085,Moderadamente_Ativo
0.083333,0.492308,0.2498,0.331081,0.571429,0.273462,0.437956,0.425532,Moderadamente_Ativo
0.45,0.707692,0.255033,0.418919,0.428571,0.299035,0.394161,0.255319,Moderadamente_Ativo
0.583333,0.615385,0.099833,0.581081,0,0.273462,0.518248,0.06383,Sedentario
0.183333,0.876923,0.1761,0.175676,0.428571,0.456592,0.357664,0.404255,Moderadamente_Ativo
0.35,0.415385,0.113933,0.810811,0,0.4791,0.481752,0.191489,Sedentario
0.283333,0.830769,0.4554,0.162162,0.714286,0.282958,0.138686,0.659574,Ativo
0.516667,0.046154,0.068633,0.77027,0,0.44373,0.583942,0.234043,Sedentario
0.433333,0.615385,0.240233,0.486486,0.285714,0.176849,0.313869,0.404255,Moderadamente_Ativo
0,0.861538,0.419533,0.222973,0.714286,0.093248,0.20438,0.531915,Ativo
0.216667,0.538462,0.246533,0.364865,0.428571,0.482315,0.29927,0.404255,Moderadamente_Ativo
0.7,0.323077,0.099467,0.533784,0,0.594855,0.291971,0.106383,Sedentario
0.666667,0.538462,0.0793,0.628378,0,0.395498,0.686131,0.106383,Sedentario
0,0.784615,0.366433,0.337838,0.428571,0.180064,0.40146,0.297872,Moderadamente_Ativo
0.716667,0.492308,0.053267,0.695946,0,0.305466,0.532847,0.170213,Sedentario
